2550
2557
2519
2524
2483
2482
2427
2480
2498
2486
2435
2435
2473
2468
2456
2456
2449
2444
2463
2443
2443
2435
2441
2421
2432
2431
2422
2435
2442
2445
2449
2432
2423
2427
2410
2424
2410
2437
2409
2425
2409
2419
2437
2430
2437
2392
2392
2418
2418
2413
2419
2417
2424
2417
2418
2411
2389
2387
2420
2421
2430
2401
2402
2401
2396
2393
2385
2394
2372
2372
2371
2371
2357
2357
2357
2357
2354
2354
2349
2348
2344
2348
2344
2346
2338
2327
2323
2323
2321
2318
2311
2303
2295
2295
2288
2277
2254
2252
2252
2252
2250
2244
2250
2243
2237
2231
2220
2209
2217
2204
2204
2187
2185
2184
2184
2184
2171
2167
2165
2160
2151
2136
2123
2110
2110
2110
2099
2103
2100
2100
2083
2069
2069
2072
2069
2069
2052
2057
2054
2051
2046
2045
2045
2037
2004
2023
2016
2023
2013
2000
1985
1983
1983
1983
1982
1969
1963
1963
1958
1958
1947
1916
1926
1917
1923
1923
1922
1922
1897
1889
1894
1894
1893
1887
1858
1866
1866
1858
1854
1854
1858
1854
1848
1848
1842
1794
1794
1794
1788
1788
1786
1786
1767
1777
1771
1777
1771
1771
1771
1771
1771
1765
1769
1765
1751
1751
1751
1751
1751
1751
1745
1749
1743
1743
1742
1738
1737
1722
1722
1722
1722
1711
1711
1711
1711
1711
1711
1711
1703
1703
1703
1695
1694
1694
1693
1692
1690
1687
1687
1686
1685
1675
1673
1668
1668
1668
1666
1666
1663
1659
1650
1650
1650
1650
1649
1649
1647
1645
1640
1639
1639
1634
1639
1626
1633
1633
1613
1613
1612
1612
1612
1612
1606
1606
1606
1606
1606
1606
1604
1604
1601
1600
1597
1597
1592
1592
1591
1585
1578
1569
1576
1576
1576
1575
1562
1562
1562
1554
1554
1554
1554
1554
1555
1554
1555
1551
1551
1551
1547
1547
1545
1542
1545
1542
1533
1533
1533
1529
1529
1530
1529
1518
1518
1518
1513
1518
1513
1513
1513
1502
1502
1502
1502
1502
1501
1495
1495
1495
1495
1494
1495
1487
1487
1487
1487
1483
1483
1483
1483
1483
1480
1475
1475
1475
1474
1467
1462
1462
1462
1455
1455
1451
1451
1451
1444
1444
1444
1444
1444
1435
1441
1440
1441
1441
1438
1437
1433
1433
1433
1433
1417
1417
1417
1417
1417
1417
1418
1417
1413
1413
1413
1411
1409
1407
1407
1403
1403
1403
1399
1403
1397
1397
1395
1395
1395
1389
1389
1389
1389
1386
1387
1387
1382
1366
1366
1378
1366
1366
1375
1366
1371
1371
1369
1365
1359
1363
1356
1356
1348
1355
1355
1357
1355
1355
1355
1355
1351
1347
1347
1347
1345
1345
1345
1341
1345
1337
1343
1343
1342
1339
1335
1335
1335
1332
1332
1332
1332
1329
1327
1325
1325
1327
1325
1325
1318
1321
1318
1313
1313
1310
1310
1310
1310
1310
1310
1308
1308
1310
1309
1308
1302
1304
1304
1294
1290
1294
1293
1294
1293
1293
1293
1294
1287
1287
1287
1285
1284
1284
1284
1284
1284
1284
1279
1275
1277
1275
1273
1275
1273
1273
1271
1271
1271
1271
1271
1271
1269
1270
1264
1264
1265
1265
1261
1260
1261
1257
1260
1257
1257
1253
1253
1253
1253
1253
1252
1250
1252
1250
1250
1249
1249
1245
1245
1239
1226
1232
1226
1232
1226
1226
1226
1226
1226
1226
1226
1226
1226
1226
1226
1226
1223
1217
1217
1217
1217
1217
1217
1217
1214
1214
1214
1216
1214
1216
1214
1216
1214
1214
1213
1210
1210
1210
1208
1209
1208
1209
1208
1208
1208
1202
1202
1207
1195
1195
1195
1195
1195
1202
1195
1195
1185
1195
1187
1187
1187
1187
1187
1187
1190
1188
1183
1183
1187
1183
1181
1181
1181
1181
1181
1181
1181
1182
1181
1182
1178
1178
1178
1178
1178
1178
1177
1176
1174
1176
1174
1168
1168
1168
1167
1165
1165
1165
1165
1165
1165
1165
1165
1165
1162
1161
1154
1154
1154
1154
1159
1154
1154
1154
1154
1154
1152
1154
1154
1150
1150
1154
1142
1142
1142
1146
1146
1145
1142
1142
1142
1141
1141
1140
1140
1140
1140
1140
1141
1135
1135
1135
1135
1135
1135
1129
1132
1129
1128
1128
1128
1128
1124
1124
1124
1124
1124
1124
1123
1123
1122
1125
1122
1120
1120
1116
1116
1116
1116
1116
1116
1116
1116
1116
1114
1116
1116
1112
1112
1112
1112
1112
1112
1110
1109
1105
1109
1107
1105
1105
1105
1105
1105
1105
1105
1105
1104
1103
1103
1103
1103
1101
1101
1098
1101
1100
1100
1098
1098
1097
1098
1098
1098
1098
1098
1093
1093
1089
1093
1089
1092
1089
1089
1082
1082
1082
1089
1082
1082
1082
1082
1082
1082
1088
1082
1082
1082
1082
1081
1081
1082
1081
1080
1080
1077
1077
1077
1073
1073
1073
1074
1073
1073
1073
1073
1073
1070
1070
1069
1064
1069
1064
1064
1064
1064
1064
1064
1064
1064
1064
1064
1064
1059
1056
1056
1056
1056
1056
1056
1056
1056
1056
1056
1056
1053
1051
1052
1051
1052
1044
1044
1044
1044
1044
1044
1044
1044
1044
1044
1044
1044
1044
1044
1043
1044
1044
1044
1040
1039
1038
1039
1039
1037
1039
1039
1035
1035
1035
1035
1035
1032
1032
1032
1032
1032
1029
1032
1029
1032
1029
1029
1029
1026
1026
1026
1026
1023
1026
1026
1025
1025
1025
1025
1023
1025
1023
1023
1023
1023
1017
1019
1017
1015
1013
1013
1015
1013
1013
1013
1013
1013
1008
1008
1008
1008
1008
1008
1011
1008
1008
1008
1008
1008
1008
1003
1003
1003
1003
1003
1003
1003
1003
1003
1003
996
996
996
996
996
999
999
999
999
999
999
996
997
996
996
996
996
996
996
996
996
996
996
996
996
996
994
996
991
994
994
995
995
995
992
995
992
993
991
989
989
989
989
989
989
989
989
989
988
988
988
988
987
987
987
987
987
987
985
986
985
987
985
985
983
983
983
983
983
978
978
978
978
978
977
978
977
977
977
977
977
977
977
977
977
977
975
977
977
977
977
977
977
977
976
971
972
971
973
971
971
968
968
968
968
970
967
968
968
966
968
966
966
966
966
968
966
965
965
965
965
962
962
965
962
962
962
960
962
960
960
960
960
959
959
959
956
956
956
956
956
957
953
953
953
953
953
953
953
953
953
953
953
953
951
951
945
942
945
942
942
942
942
942
942
942
942
942
942
942
938
942
942
942
942
942
939
942
942
942
942
941
942
941
940
940
937
939
937
937
937
937
937
933
937
933
930
930
930
930
930
930
930
930
930
930
929
929
926
929
926
929
927
927
927
927
927
927
927
925
927
925
924
925
923
923
922
922
922
919
918
918
918
918
918
918
916
916
916
916
916
916
916
916
914
914
914
912
912
912
912
912
907
912
907
912
907
912
912
907
906
906
906
906
906
906
906
906
906
906
906
906
906
897
903
897
897
897
897
897
902
897
897
897
897
897
897
897
897
897
897
897
892
892
892
892
892
892
892
892
891
892
891
892
892
892
888
888
887
887
887
887
887
887
887
887
884
884
879
875
875
875
875
875
875
875
875
875
875
875
875
875
875
875
875
875
875
875
875
875
875
875
875
875
875
874
874
874
871
871
871
871
871
872
871
871
871
871
871
871
871
871
871
871
871
867
867
867
867
867
867
867
867
867
866
866
866
866
866
866
867
867
867
867
866
866
864
865
864
865
865
863
863
864
863
863
863
864
863
863
862
862
862
862
862
862
862
862
862
862
862
861
861
861
861
858
858
858
858
858
857
858
857
857
856
857
857
857
856
856
856
856
854
854
854
856
854
856
856
854
854
854
851
852
851
851
851
850
850
850
847
847
845
845
845
845
845
845
845
845
847
847
847
847
847
847
847
845
845
845
845
844
845
844
844
843
843
843
844
844
841
844
841
841
841
841
841
841
841
841
840
840
840
841
840
841
840
840
840
840
840
840
837
838
837
837
837
837
837
838
837
837
836
836
836
836
836
836
836
836
836
836
836
835
835
833
833
832
833
832
832
833
832
832
832
832
832
832
831
831
831
831
831
831
831
831
830
829
829
829
829
829
829
829
829
829
829
828
827
827
827
825
825
825
825
825
826
825
825
825
825
822
822
822
822
822
822
822
822
822
822
822
822
822
822
822
821
822
820
820
820
820
820
820
819
818
819
818
818
818
815
815
815
815
815
817
817
817
817
811
817
817
817
816
814
814
816
814
815
813
813
813
813
813
811
813
811
812
811
812
811
812
811
811
810
811
810
809
809
809
809
805
805
805
807
805
805
805
804
805
804
804
805
805
805
804
804
804
804
804
804
803
803
803
803
802
803
802
800
800
802
800
800
802
802
799
799
799
800
798
798
798
798
798
798
798
798
798
798
798
796
796
798
794
798
794
794
794
794
797
794
794
794
794
794
794
793
793
793
793
791
793
793
793
793
793
793
793
788
788
788
790
788
788
788
789
788
788
788
788
788
788
788
788
788
788
787
788
787
787
787
787
787
787
785
785
785
785
785
785
784
784
784
784
782
782
782
782
784
782
783
782
782
783
782
780
780
780
780
780
781
779
780
778
778
778
778
778
778
778
778
778
778
776
776
776
776
776
776
776
776
772
772
776
772
772
772
772
772
772
772
771
772
772
772
772
772
772
771
770
767
770
770
770
770
770
770
770
770
770
770
770
770
770
770
770
770
768
768
768
768
766
766
766
766
766
766
765
766
765
764
765
765
765
764
764
764
764
764
760
763
760
760
760
760
760
760
760
760
760
760
760
760
760
760
760
760
758
758
758
758
758
758
758
758
758
758
758
758
757
757
757
757
757
757
757
756
756
756
756
756
756
755
755
753
749
749
749
749
749
749
749
749
749
749
749
749
749
749
749
749
749
749
749
749
749
749
749
749
749
749
747
749
747
746
746
747
746
746
746
746
746
746
746
746
746
746
746
746
746
746
746
746
745
744
744
743
744
743
743
743
743
744
741
741
743
741
741
742
741
741
741
741
741
741
741
741
741
741
741
741
741
741
741
741
741
739
741
739
739
739
739
739
739
739
739
739
739
737
737
737
737
737
737
737
737
737
737
737
736
736
737
737
737
737
737
737
737
737
737
737
737
737
735
737
735
735
735
735
735
735
734
734
734
734
733
733
733
733
733
733
733
733
733
733
733
733
733
733
733
733
733
733
733
733
733
733
733
733
733
733
733
730
730
730
730
730
730
729
730
729
730
730
730
730
730
729
729
726
729
726
729
729
727
727
727
727
727
727
729
727
727
727
727
727
727
727
727
727
727
727
727
727
727
727
727
727
726
726
726
726
725
725
725
725
724
724
724
724
724
724
722
722
722
722
722
722
722
722
723
722
719
723
719
719
723
722
721
722
722
722
721
721
721
721
721
721
721
721
721
721
719
719
719
719
719
719
719
719
719
719
718
718
718
716
716
716
716
716
716
716
716
716
716
716
716
716
716
716
716
716
716
716
716
716
715
716
715
715
715
715
715
715
715
714
713
712
713
712
712
713
712
712
712
712
711
712
710
710
710
710
710
710
711
710
710
710
710
710
710
710
710
710
710
709
710
709
709
709
708
708
708
708
708
708
708
708
708
708
708
708
708
707
708
707
707
707
707
707
707
707
707
707
707
707
705
705
705
705
705
705
705
705
705
705
705
705
705
705
705
705
705
705
705
705
705
705
705
705
704
705
704
703
703
703
703
702
702
703
703
702
702
702
702
702
702
702
702
702
702
702
701
701
701
700
700
700
701
700
699
699
699
699
699
699
699
699
699
699
699
699
699
699
699
699
699
699
699
698
698
698
698
698
696
696
696
696
696
696
696
696
696
696
696
696
696
696
696
696
696
696
696
696
696
696
696
696
696
696
695
695
695
695
695
695
695
693
693
693
693
691
691
691
691
691
691
691
691
691
691
691
691
691
691
691
691
691
691
691
691
691
690
689
690
689
689
691
689
690
689
689
689
690
689
688
689
689
689
689
689
689
689
689
690
689
690
689
690
689
689
689
689
689
689
689
689
689
687
688
687
688
688
687
687
687
687
687
687
687
687
687
687
687
687
687
687
686
687
687
687
687
687
687
687
686
685
685
685
685
685
685
685
685
685
685
685
685
685
685
685
685
685
685
685
685
685
685
684
685
684
683
683
683
683
683
683
683
683
682
682
682
682
682
682
682
682
680
680
680
681
680
681
681
681
681
680
681
680
681
681
679
679
679
679
679
679
679
679
679
679
679
678
679
679
679
679
679
679
677
676
676
676
676
676
676
676
676
676
676
676
676
676
676
676
676
676
676
676
676
676
676
675
675
675
675
675
675
675
675
675
674
675
674
674
674
674
674
674
673
673
673
673
674
673
674
674
672
673
672
673
672
672
673
672
672
672
672
672
672
672
672
672
672
672
672
672
672
672
672
671
671
670
670
670
670
670
670
670
668
668
668
668
670
670
670
670
670
669
669
669
669
669
669
668
669
669
669
669
668
668
669
668
669
668
669
668
668
668
668
668
668
668
668
667
667
667
666
667
666
666
666
666
666
666
666
666
666
666
666
666
666
666
666
666
666
665
665
665
666
665
665
665
665
665
665
665
665
665
665
665
665
665
664
664
664
664
664
664
664
664
663
663
664
663
663
663
663
663
663
663
663
663
663
663
663
662
662
662
662
662
662
662
662
662
662
662
662
662
662
662
662
662
662
662
661
661
661
661
662
660
660
660
660
660
660
660
660
660
660
660
660
660
660
659
660
659
659
659
659
659
659
659
659
659
659
659
658
658
658
658
659
658
659
659
659
657
657
657
657
657
657
657
657
656
657
656
656
656
656
656
656
656
656
656
656
656
656
656
656
656
655
655
655
655
655
655
655
655
655
655
654
654
654
653
653
653
653
653
653
653
653
653
653
653
653
653
653
653
653
653
653
653
653
653
653
651
651
651
651
653
651
652
652
652
652
652
652
651
651
651
651
651
651
651
651
651
651
651
651
651
651
650
651
650
650
650
650
650
650
650
650
650
650
650
649
650
649
649
649
648
648
648
648
648
648
648
648
648
648
648
648
648
648
648
648
648
648
648
648
648
648
648
648
648
648
648
648
648
648
646
646
646
646
646
646
646
646
646
646
646
646
646
646
646
646
646
646
646
646
646
646
645
646
643
645
645
645
645
645
645
645
645
643
643
643
643
643
643
643
643
643
643
643
643
643
643
643
643
643
643
643
643
643
643
643
643
643
643
643
643
643
643
643
643
643
643
643
643
641
641
641
641
641
641
640
640
640
640
640
640
640
640
640
640
640
640
639
639
639
639
639
639
639
639
639
639
639
639
639
639
639
639
639
639
639
639
639
639
639
639
639
639
639
639
639
639
639
637
637
637
637
637
637
637
637
637
637
637
637
637
637
636
636
636
636
636
636
636
636
636
636
636
636
636
636
636
636
636
636
637
636
636
636
636
636
636
636
636
636
636
636
636
636
636
636
636
636
636
636
636
636
636
636
636
636
636
635
636
635
635
635
635
